# Solution for model r5_t9_m0_4 Batch Number: 2
# Finished Task: 9 / 9
# Makespan: 524.0, Total Distance: 116.0, Total Time: 0.4797
# R O S F Batch
0 0 7 0.0 0.0 -1
1 1 10 0.0 0.0 -1
2 2 6 0.0 0.0 -1
3 3 13 0.0 0.0 -1
4 4 -1 0.0 0.0 -1
5 0 -1 393.0 425.0 1
6 2 -1 419.0 444.0 0
7 0 5 351.0 381.0 0
8 3 -1 488.0 524.0 1
9 3 11 358.0 387.0 0
10 1 12 323.0 351.0 0
11 3 8 387.0 419.0 0
12 1 -1 449.0 488.0 1
13 3 9 112.0 133.0 0
